
Gurobi 7.5.2 (linux64) logging started Sat Jun 23 16:34:07 2018

Changed value of parameter LogFile to result/ilp/simNo_7-n_100-m_40-s_4-minVAF_0.05-cov_2000-k_1-fn_0.15-fp_0.0001-na_0.15.ILP.gurobiSolverLog
   Prev: gurobi.log  Default: 
Changed value of parameter TimeLimit to 86400.0
   Prev: 1e+100  Min: 0.0  Max: 1e+100  Default: 1e+100
Optimize a model with 1265601 rows, 330440 columns and 3489120 nonzeros
Variable types: 0 continuous, 330440 integer (330440 binary)
Coefficient statistics:
  Matrix range     [3e-03, 4e+00]
  Objective range  [1e+00, 1e+01]
  Bounds range     [1e+00, 1e+00]
  RHS range        [4e-01, 2e+00]
Found heuristic solution: objective -16782.54041
Presolve removed 336306 rows and 214357 columns (presolve time = 7s) ...
Presolve removed 336792 rows and 214357 columns (presolve time = 11s) ...
Presolve removed 337270 rows and 214357 columns (presolve time = 15s) ...
Presolve removed 337815 rows and 214357 columns (presolve time = 20s) ...
Presolve removed 337815 rows and 214357 columns (presolve time = 25s) ...
Presolve removed 337815 rows and 214357 columns (presolve time = 30s) ...
Presolve removed 337815 rows and 214357 columns (presolve time = 35s) ...
Presolve removed 337815 rows and 214357 columns (presolve time = 40s) ...
Presolve removed 337815 rows and 214357 columns (presolve time = 46s) ...
Presolve removed 337815 rows and 214357 columns
Presolve time: 48.60s
Presolved: 927786 rows, 116083 columns, 2573621 nonzeros
Variable types: 0 continuous, 116083 integer (116083 binary)
Presolved: 116083 rows, 1043869 columns, 2689704 nonzeros

Presolve removed 116083 rows and 1043869 columns

Root simplex log...

Iteration    Objective       Primal Inf.    Dual Inf.      Time
       0    1.0109057e+01   0.000000e+00   1.083780e+05     60s
    5306   -7.5174191e+01   0.000000e+00   2.463300e+04     60s
   16235   -2.8649110e+02   0.000000e+00   2.102842e+05     65s
   28268   -3.4097718e+02   0.000000e+00   1.581454e+05     70s
   38582   -3.6579675e+02   0.000000e+00   6.259556e+05     75s
   50615   -3.9575463e+02   0.000000e+00   1.874943e+05     80s
   63794   -4.1877286e+02   0.000000e+00   5.284499e+05     85s
   69240   -4.2626022e+02   0.000000e+00   0.000000e+00     88s
   69240   -4.2626022e+02   0.000000e+00   0.000000e+00     91s

Root relaxation: objective -4.262602e+02, 69240 iterations, 38.50 seconds
Total elapsed time = 131.81s
Total elapsed time = 174.79s
Total elapsed time = 200.57s

    Nodes    |    Current Node    |     Objective Bounds      |     Work
 Expl Unexpl |  Obj  Depth IntInf | Incumbent    BestBd   Gap | It/Node Time

     0     0 -426.26022    0 1077 -16782.540 -426.26022  97.5%     -  213s
H    0     0                    -485.2775246 -426.26022  12.2%     -  240s
     0     0 -430.71636    0 1086 -485.27752 -430.71636  11.2%     -  299s
     0     0 -433.39004    0 1103 -485.27752 -433.39004  10.7%     -  370s
     0     0 -433.39235    0 1177 -485.27752 -433.39235  10.7%     -  409s
     0     0 -433.39242    0 1196 -485.27752 -433.39242  10.7%     -  421s
     0     0 -435.06450    0 1176 -485.27752 -435.06450  10.3%     -  455s
H    0     0                    -481.8676254 -435.06450  9.71%     -  468s
     0     0 -435.74710    0 1096 -481.86763 -435.74710  9.57%     -  520s
     0     0 -435.84065    0 1187 -481.86763 -435.84065  9.55%     -  546s
     0     0 -435.84065    0 1187 -481.86763 -435.84065  9.55%     -  555s
     0     0 -441.54722    0 1182 -481.86763 -441.54722  8.37%     -  673s
     0     0 -441.57047    0 1189 -481.86763 -441.57047  8.36%     -  711s
     0     0 -441.85671    0 1099 -481.86763 -441.85671  8.30%     -  724s
     0     0 -442.07952    0 1105 -481.86763 -442.07952  8.26%     -  737s
     0     0 -442.07952    0 1102 -481.86763 -442.07952  8.26%     -  748s
     0     0 -443.14488    0 1188 -481.86763 -443.14488  8.04%     -  776s
     0     0 -443.19356    0 1110 -481.86763 -443.19356  8.03%     -  815s
     0     0 -443.28525    0 1130 -481.86763 -443.28525  8.01%     -  827s
     0     0 -443.30127    0 1198 -481.86763 -443.30127  8.00%     -  840s
     0     0 -446.15482    0  629 -481.86763 -446.15482  7.41%     -  885s
     0     0 -446.15482    0  629 -481.86763 -446.15482  7.41%     -  916s
     0     0 -448.39704    0  624 -481.86763 -448.39704  6.95%     -  940s
     0     0 -448.59509    0  621 -481.86763 -448.59509  6.90%     -  973s
     0     0 -448.59509    0  623 -481.86763 -448.59509  6.90%     -  982s
     0     0 -451.26878    0  621 -481.86763 -451.26878  6.35%     - 1005s
     0     0 -451.26878    0  625 -481.86763 -451.26878  6.35%     - 1035s
     0     0 -451.66488    0  570 -481.86763 -451.66488  6.27%     - 1059s
     0     0 -451.78866    0  570 -481.86763 -451.78866  6.24%     - 1087s
     0     0 -451.86293    0  571 -481.86763 -451.86293  6.23%     - 1102s
     0     0 -451.86293    0  568 -481.86763 -451.86293  6.23%     - 1111s
     0     0 -452.45708    0  624 -481.86763 -452.45708  6.10%     - 1138s
     0     0 -452.55611    0  578 -481.86763 -452.55611  6.08%     - 1171s
     0     0 -452.63533    0  636 -481.86763 -452.63533  6.07%     - 1189s
     0     0 -452.71172    0  625 -481.86763 -452.71172  6.05%     - 1205s
     0     0 -452.71172    0  618 -481.86763 -452.71172  6.05%     - 1218s
     0     0 -453.34362    0  641 -481.86763 -453.34362  5.92%     - 1255s
     0     0 -453.44490    0  644 -481.86763 -453.44490  5.90%     - 1288s
     0     0 -453.47563    0  638 -481.86763 -453.47563  5.89%     - 1298s
     0     0 -453.47563    0  642 -481.86763 -453.47563  5.89%     - 1309s
     0     0 -454.06129    0  639 -481.86763 -454.06129  5.77%     - 1329s
     0     0 -454.41779    0  633 -481.86763 -454.41779  5.70%     - 1365s
     0     0 -454.46235    0  643 -481.86763 -454.46235  5.69%     - 1376s
     0     0 -454.46235    0  644 -481.86763 -454.46235  5.69%     - 1384s
     0     0 -456.85381    0  629 -481.86763 -456.85381  5.19%     - 1440s
     0     0 -456.85381    0  630 -481.86763 -456.85381  5.19%     - 1470s
     0     0 -458.38349    0  616 -481.86763 -458.38349  4.87%     - 1544s
     0     0 -458.47712    0  628 -481.86763 -458.47712  4.85%     - 1598s
     0     0 -458.58453    0  641 -481.86763 -458.58453  4.83%     - 1615s
     0     0 -458.65517    0  633 -481.86763 -458.65517  4.82%     - 1629s
     0     0 -458.65517    0  632 -481.86763 -458.65517  4.82%     - 1639s
     0     0 -459.14130    0  549 -481.86763 -459.14130  4.72%     - 1667s
     0     0 -459.78496    0  613 -481.86763 -459.78496  4.58%     - 1704s
     0     0 -459.91311    0  628 -481.86763 -459.91311  4.56%     - 1723s
     0     0 -459.93680    0  628 -481.86763 -459.93680  4.55%     - 1736s
     0     0 -459.93680    0  629 -481.86763 -459.93680  4.55%     - 1746s
     0     0 -460.32086    0  615 -481.86763 -460.32086  4.47%     - 1768s
     0     0 -460.51252    0  628 -481.86763 -460.51252  4.43%     - 1806s
     0     0 -460.65897    0  617 -481.86763 -460.65897  4.40%     - 1822s
     0     0 -460.65897    0  621 -481.86763 -460.65897  4.40%     - 1832s
     0     0 -460.80751    0  638 -481.86763 -460.80751  4.37%     - 1859s
     0     0 -461.07488    0  640 -481.86763 -461.07488  4.32%     - 1894s
     0     0 -461.09585    0  646 -481.86763 -461.09585  4.31%     - 1910s
     0     0 -461.13269    0  651 -481.86763 -461.13269  4.30%     - 1929s
     0     0 -461.13269    0  652 -481.86763 -461.13269  4.30%     - 1938s
     0     0 -461.55994    0  635 -481.86763 -461.55994  4.21%     - 1965s
     0     0 -461.73224    0  645 -481.86763 -461.73224  4.18%     - 2027s
     0     0 -461.74747    0  643 -481.86763 -461.74747  4.18%     - 2047s
     0     0 -461.75739    0  650 -481.86763 -461.75739  4.17%     - 2060s
     0     0 -461.76415    0  652 -481.86763 -461.76415  4.17%     - 2071s
     0     0 -461.77339    0  653 -481.86763 -461.77339  4.17%     - 2084s
     0     0 -461.77339    0  653 -481.86763 -461.77339  4.17%     - 2092s
     0     0 -462.93963    0  632 -481.86763 -462.93963  3.93%     - 2138s
     0     0 -463.15183    0  641 -481.86763 -463.15183  3.88%     - 2177s
     0     0 -463.15183    0  628 -481.86763 -463.15183  3.88%     - 2190s
     0     0 -463.24425    0  622 -481.86763 -463.24425  3.86%     - 2214s
     0     0 -463.27691    0  640 -481.86763 -463.27691  3.86%     - 2249s
     0     0 -463.30274    0  662 -481.86763 -463.30274  3.85%     - 2265s
     0     0 -463.47496    0  650 -481.86763 -463.47496  3.82%     - 2286s
     0     0 -463.53155    0  662 -481.86763 -463.53155  3.81%     - 2302s
     0     0 -463.60274    0  666 -481.86763 -463.60274  3.79%     - 2321s
     0     0 -463.62641    0  667 -481.86763 -463.62641  3.79%     - 2336s
     0     0 -463.67682    0  666 -481.86763 -463.67682  3.78%     - 2357s
     0     0 -463.70131    0  649 -481.86763 -463.70131  3.77%     - 2375s
     0     0 -463.70131    0  651 -481.86763 -463.70131  3.77%     - 2385s
     0     0 -464.43440    0  639 -481.86763 -464.43440  3.62%     - 2423s
     0     0 -464.52580    0  658 -481.86763 -464.52580  3.60%     - 2463s
     0     0 -464.58769    0  638 -481.86763 -464.58769  3.59%     - 2494s
     0     0 -464.58769    0  661 -481.86763 -464.58769  3.59%     - 2506s
     0     0 -465.43539    0  641 -481.86763 -465.43539  3.41%     - 2595s
     0     0 -465.52844    0  618 -481.86763 -465.52844  3.39%     - 2635s
     0     0 -465.57087    0  622 -481.86763 -465.57087  3.38%     - 2656s
     0     0 -465.57087    0  626 -481.86763 -465.57087  3.38%     - 2669s
     0     0 -466.18200    0  618 -481.86763 -466.18200  3.26%     - 2744s
     0     0 -466.27113    0  632 -481.86763 -466.27113  3.24%     - 2789s
     0     0 -466.27113    0  633 -481.86763 -466.27113  3.24%     - 2803s
     0     0 -466.51869    0  628 -481.86763 -466.51869  3.19%     - 2832s
     0     0 -466.64601    0  644 -481.86763 -466.64601  3.16%     - 2879s
     0     0 -466.69344    0  644 -481.86763 -466.69344  3.15%     - 2908s
     0     0 -466.72839    0  639 -481.86763 -466.72839  3.14%     - 2932s
     0     0 -466.74150    0  650 -481.86763 -466.74150  3.14%     - 2946s
     0     0 -466.74150    0  646 -481.86763 -466.74150  3.14%     - 2958s
     0     0 -466.74660    0  642 -481.86763 -466.74660  3.14%     - 2979s
     0     0 -466.77843    0  652 -481.86763 -466.77843  3.13%     - 3011s
     0     0 -466.79913    0  662 -481.86763 -466.79913  3.13%     - 3024s
     0     0 -466.82388    0  658 -481.86763 -466.82388  3.12%     - 3038s
     0     0 -466.82388    0  637 -481.86763 -466.82388  3.12%     - 3048s
     0     0 -467.22950    0  639 -481.86763 -467.22950  3.04%     - 3126s
     0     0 -467.26519    0  655 -481.86763 -467.26519  3.03%     - 3183s
     0     0 -467.42972    0  657 -481.86763 -467.42972  3.00%     - 3216s
     0     0 -467.42972    0  650 -481.86763 -467.42972  3.00%     - 3228s
     0     0 -467.46005    0  658 -481.86763 -467.46005  2.99%     - 3256s
     0     0 -467.46085    0  655 -481.86763 -467.46085  2.99%     - 3288s
     0     0 -468.24456    0  637 -481.86763 -468.24456  2.83%     - 3356s
     0     0 -468.37188    0  645 -481.86763 -468.37188  2.80%     - 3442s
     0     0 -468.38779    0  640 -481.86763 -468.38779  2.80%     - 3465s
     0     0 -468.38779    0  639 -481.86763 -468.38779  2.80%     - 3476s
     0     0 -469.10908    0  647 -481.86763 -469.10908  2.65%     - 3542s
     0     0 -469.45409    0  644 -481.86763 -469.45409  2.58%     - 3631s
     0     0 -469.45409    0  652 -481.86763 -469.45409  2.58%     - 3643s
     0     0 -469.91602    0  632 -481.86763 -469.91602  2.48%     - 3775s
     0     0 -469.98458    0  634 -481.86763 -469.98458  2.47%     - 3839s
     0     0 -470.04254    0  636 -481.86763 -470.04254  2.45%     - 3890s
     0     0 -470.13312    0  639 -481.86763 -470.13312  2.44%     - 3932s
     0     0 -470.13312    0  643 -481.86763 -470.13312  2.44%     - 3947s
     0     0 -470.68900    0  647 -481.86763 -470.68900  2.32%     - 4037s
     0     0 -470.84962    0  658 -481.86763 -470.84962  2.29%     - 4128s
     0     0 -470.94635    0  644 -481.86763 -470.94635  2.27%     - 4169s
     0     0 -470.98726    0  654 -481.86763 -470.98726  2.26%     - 4197s
     0     0 -470.98726    0  657 -481.86763 -470.98726  2.26%     - 4205s
     0     0 -471.16809    0  632 -481.86763 -471.16809  2.22%     - 4235s
     0     0 -471.31749    0  643 -481.86763 -471.31749  2.19%     - 4290s
     0     0 -471.31749    0  653 -481.86763 -471.31749  2.19%     - 4303s
     0     0 -471.31749    0  656 -481.86763 -471.31749  2.19%     - 4323s
     0     0 -471.31749    0  652 -481.86763 -471.31749  2.19%     - 4348s
     0     0 -471.31749    0  653 -481.86763 -471.31749  2.19%     - 4365s
     0     0 -471.31749    0  654 -481.86763 -471.31749  2.19%     - 4384s
     0     0 -471.47174    0  632 -481.86763 -471.47174  2.16%     - 4911s
     0     0 -471.48888    0  644 -481.86763 -471.48888  2.15%     - 4948s
     0     0 -471.48888    0  644 -481.86763 -471.48888  2.15%     - 4956s
     0     0 -471.48988    0  645 -481.86763 -471.48988  2.15%     - 4982s
     0     0 -471.48988    0  645 -481.86763 -471.48988  2.15%     - 5003s
     0     0 -471.48988    0  645 -481.86763 -471.48988  2.15%     - 5096s
     0     0 -471.48988    0  645 -481.86763 -471.48988  2.15%     - 5137s
     0     2 -471.49408    0  645 -481.86763 -471.49408  2.15%     - 5396s
     1     3 -471.83166    1  633 -481.86763 -471.49452  2.15%  2441 5419s
     2     4 -475.68285    1  731 -481.86763 -471.83802  2.08%  5510 5513s
     3     5 -472.25612    2  629 -481.86763 -471.90855  2.07%  3841 5523s
     4     6 -477.78461    2  702 -481.86763 -472.25612  1.99%  5031 5598s
     5     7 -476.15776    3  711 -481.86763 -472.25612  1.99%  4608 5630s
     7     9 -474.87777    4  683 -481.86763 -472.25612  1.99%  3508 5653s
     8    10 -473.15858    4  628 -481.86763 -473.15858  1.81%  3191 5664s
     9    11 -473.18907    5  625 -481.86763 -473.15858  1.81%  2849 5668s
    10    12 -480.67539    5  391 -481.86763 -473.18907  1.80%  2856 5696s
    11    13 -481.10372    6  379 -481.86763 -473.18907  1.80%  2628 5703s
    12    12     cutoff    6      -481.86763 -473.18907  1.80%  2448 5706s
    13    13 -481.42201    7  382 -481.86763 -473.18907  1.80%  2304 5710s
    17    11     cutoff    9      -481.86763 -473.18907  1.80%  1786 5715s
    21    11 -473.18907    6  626 -481.86763 -473.18907  1.80%  1459 5721s
    22    12 -474.71101    7  642 -481.86763 -473.18907  1.80%  1548 5756s
    23    11     cutoff    7      -481.86763 -473.18907  1.80%  2117 6065s
    24    12 -476.21924    8  612 -481.86763 -473.18907  1.80%  2092 6084s
    25    13 -477.50038    8  601 -481.86763 -473.18907  1.80%  2187 6131s
    26    14 -478.04221    9  600 -481.86763 -473.18907  1.80%  2123 6144s
    27    13     cutoff    9      -481.86763 -473.18907  1.80%  2517 6386s
    28    14 -478.89293   10  573 -481.86763 -473.18907  1.80%  2451 6398s
    29    15 -479.78416   11  537 -481.86763 -473.18907  1.80%  2398 6411s
    30    16 -480.81250   11  586 -481.86763 -473.18907  1.80%  2430 6457s
    31    17 -481.63517   12  579 -481.86763 -473.18907  1.80%  2393 6473s
    32    16     cutoff   13      -481.86763 -473.18907  1.80%  2337 6479s
    33    15     cutoff   13      -481.86763 -473.18907  1.80%  2266 6480s
    34    14     cutoff   12      -481.86763 -473.18907  1.80%  2212 6486s
    35    15 -480.22977   12  570 -481.86763 -473.18907  1.80%  2164 6494s
    36    14     cutoff   12      -481.86763 -473.18907  1.80%  2113 6498s
    37    15 -480.67539   13  576 -481.86763 -473.18907  1.80%  2084 6509s
    38    14     cutoff   13      -481.86763 -473.18907  1.80%  2041 6512s
    40    14     cutoff   14      -481.86763 -473.18907  1.80%  1948 6517s
    41    15 -481.26954   15  564 -481.86763 -473.18907  1.80%  1909 6522s
    42    14     cutoff   15      -481.86763 -473.18907  1.80%  1869 6525s
    45    13 -481.67796    6  700 -481.86763 -474.88147  1.45%  1999 6719s
    46    12     cutoff    7      -481.86763 -474.88147  1.45%  2012 6752s
    47    11     cutoff    7      -481.86763 -474.88147  1.45%  2027 6779s
    48    12 -475.51481    5 1128 -481.86763 -474.88304  1.45%  2015 6794s
    49    13 -478.75847    6 1100 -481.86763 -474.88304  1.45%  2308 7004s
    50    12     cutoff    7      -481.86763 -474.88304  1.45%  2345 7051s
    51    13 -481.79053    7  612 -481.86763 -474.88304  1.45%  2542 7245s
    52    12     cutoff    8      -481.86763 -474.88304  1.45%  2527 7265s
    54    12 -480.52037    6  525 -481.86763 -474.88304  1.45%  2496 7305s
    55    13 -481.41160    7  505 -481.86763 -474.88304  1.45%  2457 7315s
    57    11     cutoff    8      -481.86763 -474.88304  1.45%  2380 7321s
    59    11 -477.11047    5  514 -481.86763 -475.68297  1.28%  2313 7333s
    60    12 -478.00170    6  516 -481.86763 -475.68297  1.28%  2278 7338s
    61    11     cutoff    6      -481.86763 -475.68297  1.28%  2249 7345s
    62    12 -478.89293    7  495 -481.86763 -475.68297  1.28%  2220 7353s
    63    13 -478.89293    7  383 -481.86763 -475.68297  1.28%  2190 7358s
    64    14 -479.12792    8  381 -481.86763 -475.68297  1.28%  2166 7366s
    65    13     cutoff    8      -481.86763 -475.68297  1.28%  2142 7377s
    66    14 -479.52815    9  374 -481.86763 -475.68297  1.28%  2119 7386s
    68    16 -480.01387   11  386 -481.86763 -475.68297  1.28%  2062 7392s
    69    17 -480.05276   12  384 -481.86763 -475.68297  1.28%  2036 7396s
    71    15     cutoff   13      -481.86763 -475.68297  1.28%  1986 7403s
    72    16 -480.32059   13  382 -481.86763 -475.68297  1.28%  1965 7409s
    73    15     cutoff   14      -481.86763 -475.68297  1.28%  1943 7414s
    74    16 -480.73333   14  390 -481.86763 -475.68297  1.28%  1924 7420s
    75    17 -481.33289   15  345 -481.86763 -475.68297  1.28%  1903 7427s
    78    14     cutoff   15      -481.86763 -475.68297  1.28%  1834 7431s
    79    15 -478.81575    2  631 -481.86763 -475.68490  1.28%  1846 7462s
    80    16 -479.51846    3  612 -481.86763 -475.68490  1.28%  1828 7470s
    82    18 -481.56661    5  486 -481.86763 -475.68490  1.28%  1792 7482s
    84    18     cutoff    7      -481.86763 -475.68490  1.28%  1751 7485s
    87    15     cutoff    5      -481.86763 -475.68490  1.28%  1697 7493s
    88    16 -476.21286    2 1160 -481.86763 -476.15877  1.18%  1719 7523s
    89    17 -476.68714    3 1640 -481.86763 -476.15877  1.18%  1754 7587s
    90    16     cutoff    4      -481.86763 -476.15877  1.18%  2012 8010s
    91    15     cutoff    4      -481.86763 -476.15877  1.18%  2316 8753s
    92    14     cutoff    3      -481.86763 -476.15877  1.18%  2427 8947s
    93    15 -478.89293    4  540 -481.86763 -476.16145  1.18%  2419 8966s
    94    16 -479.30995    5  562 -481.86763 -476.16145  1.18%  2396 8971s
    95    17 -479.78416    6  541 -481.86763 -476.16145  1.18%  2373 8975s
    99    21 -480.67539   10  455 -481.86763 -476.16145  1.18%  2281 8983s
   101    21     cutoff   12      -481.86763 -476.16145  1.18%  2237 8987s
   102    22 -480.74135   12  387 -481.86763 -476.16145  1.18%  2219 8992s
   103    23 -481.11143   13  390 -481.86763 -476.16145  1.18%  2204 8999s
   104    22     cutoff   14      -481.86763 -476.16145  1.18%  2184 9002s
   106    20     cutoff   13      -481.86763 -476.16145  1.18%  2148 9007s
   107    21 -476.56275    4 1126 -481.86763 -476.22278  1.17%  2140 9020s
   108    20     cutoff    5      -481.86763 -476.22278  1.17%  2130 9036s
   109    21 -479.45662    5 1730 -481.86763 -476.22278  1.17%  2231 9228s
   110    20     cutoff    6      -481.86763 -476.22278  1.17%  2346 9530s
   111    19     cutoff    6      -481.86763 -476.22278  1.17%  2444 9761s
   112    20 -479.91148    9  567 -481.86763 -476.23037  1.17%  2466 9836s
   113    21 -480.57054   10  560 -481.86763 -476.23037  1.17%  2451 9850s
   114    22 -481.46759   11  563 -481.86763 -476.23037  1.17%  2437 9863s
   115    23 -481.56661   12  538 -481.86763 -476.23037  1.17%  2418 9865s
   119    19     cutoff   11      -481.86763 -476.23037  1.17%  2346 9877s
   120    20 -478.89293    9  530 -481.86763 -477.78845  0.85%  2338 9893s
   121    21 -479.33854   10  586 -481.86763 -477.78845  0.85%  2323 9900s
   122    20     cutoff   10      -481.86763 -477.78845  0.85%  2318 9920s
   123    21 -479.78416   11  531 -481.86763 -477.78845  0.85%  2302 9927s
   124    20     cutoff   12      -481.86763 -477.78845  0.85%  2303 9950s
   125    19     cutoff   12      -481.86763 -477.78845  0.85%  2288 9955s
   126    18     cutoff   11      -481.86763 -477.78845  0.85%  2276 9963s
   127    19 -480.67539    3  395 -481.86763 -477.79214  0.85%  2264 9974s
   128    20 -480.85469    4  393 -481.86763 -477.79214  0.85%  2249 9980s
   129    21 -481.40079    5  381 -481.86763 -477.79214  0.85%  2236 9988s
   130    20     cutoff    6      -481.86763 -477.79214  0.85%  2221 9990s
   132    18     cutoff    5      -481.86763 -477.79214  0.85%  2190 9995s
   134    18 -478.81493    3 1141 -481.86763 -478.06417  0.79%  2174 10013s
   135    17     cutoff    4      -481.86763 -478.06417  0.79%  2179 10038s
   136    18 -481.32850    4 1117 -481.86763 -478.06417  0.79%  2231 10100s
   139    15     cutoff   10      -481.86763 -478.89293  0.62%  2249 10231s
   141    17 -481.27347    9  158 -481.86763 -478.89293  0.62%  2225 10253s
   142    16     cutoff   10      -481.86763 -478.89293  0.62%  2210 10255s
   144    16 -479.07369    9  384 -481.86763 -478.89293  0.62%  2184 10262s
   145    17 -479.50450   10  384 -481.86763 -478.89293  0.62%  2172 10269s
   146    16     cutoff   11      -481.86763 -478.89293  0.62%  2160 10273s
   147    17 -479.84430   11  380 -481.86763 -478.89293  0.62%  2148 10279s
   148    18 -480.61991   12  385 -481.86763 -478.89293  0.62%  2136 10286s
   149    19 -480.72502   13  383 -481.86763 -478.89293  0.62%  2123 10290s
   150    20 -481.27347   14  372 -481.86763 -478.89293  0.62%  2112 10297s
   152    18     cutoff   15      -481.86763 -478.89293  0.62%  2086 10302s
   153    17     cutoff   14      -481.86763 -478.89293  0.62%  2075 10307s
   154    16     cutoff   13      -481.86763 -478.89293  0.62%  2063 10310s
   156    16 -481.56661    8  496 -481.86763 -478.90709  0.61%  2043 10323s
   158    14     cutoff    9      -481.86763 -478.90709  0.61%  2017 10325s
   160    12     cutoff   10      -481.86763 -479.13721  0.57%  1996 10332s
   161    11     cutoff    9      -481.86763 -479.36502  0.52%  1987 10337s
   163     9     cutoff   10      -481.86763 -479.52843  0.49%  1966 10342s
   164     8     cutoff   11      -481.86763 -479.54572  0.48%  1958 10347s
   166     6     cutoff   10      -481.86763 -479.78416  0.43%  1938 10354s
   167     5     cutoff    9      -481.86763 -479.78416  0.43%  1928 10357s
   168     4     cutoff    8      -481.86763 -479.78416  0.43%  1918 10361s
   170     2     cutoff   12      -481.86763 -479.91148  0.41%  1899 10370s
   171     1     cutoff   10      -481.86763 -480.71246  0.24%  1917 10446s

Cutting planes:
  Gomory: 1
  Zero half: 490

Explored 173 nodes (555130 simplex iterations) in 10449.74 seconds
Thread count was 1 (of 80 available processors)

Solution count 3: -481.868 -485.278 -16782.5 

Optimal solution found (tolerance 1.00e-04)
Best objective -4.818676253671e+02, best bound -4.818676253671e+02, gap 0.0000%
